1 0 -1 8 -1 1 4 9 -1 -1 
8 -1 9 6 7 2 9 9 9 -1 
0 6 7 8 3 -1 -1 6 2 -1 
6 5 7 0 4 3 9 8 9 -1 
1 4 5 1 9 2 0 5 9 -1 
1 2 9 5 2 -1 9 7 -1 -1 
2 0 -1 9 4 3 0 5 2 -1 
5 2 -1 5 10 6 2 2 10 -1 
3 5 5 0 4 0 8 5 0 -1 
4 1 1 3 9 4 7 8 1 -1 
